Route #1: 7 2 45 43 29 36 72 57
Route #2: 25 65 78 42 28
Route #3: 54 70 1
Route #4: 80 94 56 21
Route #5: 68 90 84 66
Route #6: 18 10 39
Route #7: 58 12 5
Route #8: 71 62 99 98 89
Route #9: 63 77 3
Route #10: 75 93
Route #11: 81 51 83
Route #12: 27 97 19
Route #13: 74 13 4
Route #14: 82 60 59
Route #15: 40 88 67 44
Route #16: 69 16 55 76
Route #17: 8 17
Route #18: 30 85 11 79
Route #19: 23 61 100
Route #20: 31 46 35
Route #21: 15 22 41 20
Route #22: 86 9 92
Route #23: 52 91 50
Route #24: 32 33 53 73 95 24
Route #25: 34 64 96 48 26 47 38
Route #26: 87 37 6 49 14
Cost 27591.0000
Time 16.0001